c Generated map
c Size: 30 * 30, weights in range: 1 to 10, walls: True, with ratio 0.05
c dim 1 of 3
c
p sp 900 1571
c graph contains 900 nodes and 1571 arcs
c
a 1 31 6
a 31 1 6
a 1 2 3
a 2 1 3
a 2 32 2
a 32 2 2
a 2 3 6
a 3 2 6
a 3 33 9
a 33 3 9
a 3 4 2
a 4 3 2
a 4 34 6
a 34 4 6
a 4 5 8
a 5 4 8
a 5 35 10
a 35 5 10
a 5 6 4
a 6 5 4
a 6 36 5
a 36 6 5
a 6 7 5
a 7 6 5
a 7 37 3
a 37 7 3
a 7 8 10
a 8 7 10
a 8 38 10
a 38 8 10
a 8 9 1
a 9 8 1
a 9 39 5
a 39 9 5
a 9 10 1
a 10 9 1
a 10 40 8
a 40 10 8
a 10 11 7
a 11 10 7
a 11 41 4
a 41 11 4
a 11 12 8
a 12 11 8
a 12 42 5
a 42 12 5
a 12 13 5
a 13 12 5
a 13 43 4
a 43 13 4
a 13 14 4
a 14 13 4
a 14 44 3
a 44 14 3
a 14 15 3
a 15 14 3
a 15 45 6
a 45 15 6
a 15 16 10
a 16 15 10
a 16 46 5
a 46 16 5
a 16 17 6
a 17 16 6
a 17 47 2
a 47 17 2
a 17 18 6
a 18 17 6
a 18 48 1
a 48 18 1
a 18 19 10
a 19 18 10
a 19 49 2
a 49 19 2
a 19 20 10
a 20 19 10
a 20 50 4
a 50 20 4
a 20 21 3
a 21 20 3
a 21 51 10
a 51 21 10
a 21 22 5
a 22 21 5
a 22 52 6
a 52 22 6
a 24 25 10
a 25 24 10
a 25 55 9
a 55 25 9
a 25 26 1
a 26 25 1
a 26 56 1
a 56 26 1
a 26 27 10
a 27 26 10
a 27 57 9
a 57 27 9
a 27 28 4
a 28 27 4
a 28 58 10
a 58 28 10
a 28 29 1
a 29 28 1
a 29 59 10
a 59 29 10
a 29 30 4
a 30 29 4
a 30 60 2
a 60 30 2
a 31 61 7
a 61 31 7
a 31 32 5
a 32 31 5
a 32 62 7
a 62 32 7
a 32 33 4
a 33 32 4
a 33 63 8
a 63 33 8
a 33 34 5
a 34 33 5
a 34 64 4
a 64 34 4
a 34 35 7
a 35 34 7
a 35 65 5
a 65 35 5
a 35 36 2
a 36 35 2
a 36 66 1
a 66 36 1
a 36 37 4
a 37 36 4
a 37 67 7
a 67 37 7
a 37 38 6
a 38 37 6
a 38 68 9
a 68 38 9
a 38 39 5
a 39 38 5
a 39 69 10
a 69 39 10
a 39 40 9
a 40 39 9
a 40 70 3
a 70 40 3
a 40 41 10
a 41 40 10
a 41 71 9
a 71 41 9
a 41 42 7
a 42 41 7
a 42 72 10
a 72 42 10
a 42 43 7
a 43 42 7
a 43 73 6
a 73 43 6
a 43 44 4
a 44 43 4
a 44 74 8
a 74 44 8
a 44 45 5
a 45 44 5
a 45 75 1
a 75 45 1
a 45 46 8
a 46 45 8
a 46 76 8
a 76 46 8
a 46 47 10
a 47 46 10
a 47 77 10
a 77 47 10
a 47 48 6
a 48 47 6
a 48 78 5
a 78 48 5
a 48 49 3
a 49 48 3
a 49 50 6
a 50 49 6
a 50 51 2
a 51 50 2
a 51 81 7
a 81 51 7
a 51 52 10
a 52 51 10
a 52 82 9
a 82 52 9
a 52 53 1
a 53 52 1
a 53 83 4
a 83 53 4
a 55 85 6
a 85 55 6
a 55 56 4
a 56 55 4
a 56 86 4
a 86 56 4
a 56 57 5
a 57 56 5
a 57 87 10
a 87 57 10
a 57 58 9
a 58 57 9
a 58 88 2
a 88 58 2
a 58 59 5
a 59 58 5
a 59 89 5
a 89 59 5
a 59 60 10
a 60 59 10
a 60 90 10
a 90 60 10
a 61 91 7
a 91 61 7
a 61 62 2
a 62 61 2
a 62 92 3
a 92 62 3
a 62 63 6
a 63 62 6
a 63 93 3
a 93 63 3
a 63 64 3
a 64 63 3
a 64 94 4
a 94 64 4
a 64 65 9
a 65 64 9
a 65 95 9
a 95 65 9
a 65 66 6
a 66 65 6
a 66 96 3
a 96 66 3
a 66 67 6
a 67 66 6
a 67 97 5
a 97 67 5
a 67 68 4
a 68 67 4
a 68 98 4
a 98 68 4
a 68 69 2
a 69 68 2
a 69 99 6
a 99 69 6
a 69 70 8
a 70 69 8
a 70 100 6
a 100 70 6
a 70 71 10
a 71 70 10
a 71 101 6
a 101 71 6
a 71 72 5
a 72 71 5
a 72 102 9
a 102 72 9
a 72 73 8
a 73 72 8
a 73 103 5
a 103 73 5
a 73 74 10
a 74 73 10
a 74 104 5
a 104 74 5
a 74 75 5
a 75 74 5
a 75 105 3
a 105 75 3
a 75 76 9
a 76 75 9
a 76 106 9
a 106 76 9
a 76 77 2
a 77 76 2
a 77 107 7
a 107 77 7
a 77 78 9
a 78 77 9
a 78 108 5
a 108 78 5
a 81 82 8
a 82 81 8
a 82 112 3
a 112 82 3
a 82 83 2
a 83 82 2
a 83 113 8
a 113 83 8
a 83 84 5
a 84 83 5
a 84 114 4
a 114 84 4
a 84 85 1
a 85 84 1
a 85 115 3
a 115 85 3
a 85 86 8
a 86 85 8
a 86 116 1
a 116 86 1
a 86 87 10
a 87 86 10
a 87 117 7
a 117 87 7
a 87 88 2
a 88 87 2
a 88 118 10
a 118 88 10
a 88 89 1
a 89 88 1
a 89 119 7
a 119 89 7
a 89 90 7
a 90 89 7
a 90 120 4
a 120 90 4
a 91 121 4
a 121 91 4
a 91 92 3
a 92 91 3
a 92 122 4
a 122 92 4
a 92 93 10
a 93 92 10
a 93 123 4
a 123 93 4
a 93 94 1
a 94 93 1
a 94 124 8
a 124 94 8
a 94 95 1
a 95 94 1
a 95 125 2
a 125 95 2
a 95 96 2
a 96 95 2
a 96 126 1
a 126 96 1
a 96 97 7
a 97 96 7
a 97 127 7
a 127 97 7
a 97 98 9
a 98 97 9
a 98 128 6
a 128 98 6
a 98 99 3
a 99 98 3
a 99 129 6
a 129 99 6
a 99 100 5
a 100 99 5
a 100 130 9
a 130 100 9
a 100 101 8
a 101 100 8
a 101 131 7
a 131 101 7
a 101 102 8
a 102 101 8
a 102 132 4
a 132 102 4
a 102 103 1
a 103 102 1
a 103 133 3
a 133 103 3
a 103 104 4
a 104 103 4
a 104 134 9
a 134 104 9
a 104 105 3
a 105 104 3
a 105 135 6
a 135 105 6
a 105 106 5
a 106 105 5
a 106 136 6
a 136 106 6
a 106 107 4
a 107 106 4
a 107 137 3
a 137 107 3
a 107 108 4
a 108 107 4
a 108 138 3
a 138 108 3
a 108 109 8
a 109 108 8
a 109 139 9
a 139 109 9
a 112 142 6
a 142 112 6
a 112 113 2
a 113 112 2
a 113 143 5
a 143 113 5
a 113 114 5
a 114 113 5
a 114 144 8
a 144 114 8
a 114 115 7
a 115 114 7
a 115 145 6
a 145 115 6
a 115 116 4
a 116 115 4
a 116 146 8
a 146 116 8
a 116 117 3
a 117 116 3
a 117 147 9
a 147 117 9
a 117 118 1
a 118 117 1
a 118 148 2
a 148 118 2
a 118 119 8
a 119 118 8
a 119 149 3
a 149 119 3
a 119 120 8
a 120 119 8
a 120 150 8
a 150 120 8
a 121 151 6
a 151 121 6
a 121 122 10
a 122 121 10
a 122 152 10
a 152 122 10
a 122 123 6
a 123 122 6
a 123 153 5
a 153 123 5
a 123 124 4
a 124 123 4
a 124 154 8
a 154 124 8
a 124 125 1
a 125 124 1
a 125 155 8
a 155 125 8
a 125 126 3
a 126 125 3
a 126 156 4
a 156 126 4
a 126 127 10
a 127 126 10
a 127 157 7
a 157 127 7
a 127 128 4
a 128 127 4
a 128 158 10
a 158 128 10
a 128 129 5
a 129 128 5
a 129 159 2
a 159 129 2
a 129 130 2
a 130 129 2
a 130 160 8
a 160 130 8
a 130 131 6
a 131 130 6
a 131 161 7
a 161 131 7
a 131 132 10
a 132 131 10
a 132 162 7
a 162 132 7
a 132 133 4
a 133 132 4
a 133 163 8
a 163 133 8
a 133 134 6
a 134 133 6
a 134 164 8
a 164 134 8
a 134 135 7
a 135 134 7
a 135 165 10
a 165 135 10
a 135 136 1
a 136 135 1
a 136 166 1
a 166 136 1
a 136 137 4
a 137 136 4
a 137 167 9
a 167 137 9
a 137 138 1
a 138 137 1
a 138 168 2
a 168 138 2
a 138 139 5
a 139 138 5
a 139 169 10
a 169 139 10
a 141 171 9
a 171 141 9
a 141 142 10
a 142 141 10
a 142 172 1
a 172 142 1
a 142 143 5
a 143 142 5
a 143 173 1
a 173 143 1
a 143 144 10
a 144 143 10
a 144 174 10
a 174 144 10
a 144 145 10
a 145 144 10
a 145 175 3
a 175 145 3
a 145 146 10
a 146 145 10
a 146 176 4
a 176 146 4
a 146 147 1
a 147 146 1
a 147 177 2
a 177 147 2
a 147 148 3
a 148 147 3
a 148 178 6
a 178 148 6
a 148 149 1
a 149 148 1
a 149 179 8
a 179 149 8
a 149 150 6
a 150 149 6
a 150 180 2
a 180 150 2
a 151 181 8
a 181 151 8
a 151 152 6
a 152 151 6
a 152 182 5
a 182 152 5
a 152 153 10
a 153 152 10
a 153 183 4
a 183 153 4
a 153 154 3
a 154 153 3
a 154 184 10
a 184 154 10
a 154 155 1
a 155 154 1
a 155 185 7
a 185 155 7
a 155 156 9
a 156 155 9
a 156 186 2
a 186 156 2
a 156 157 5
a 157 156 5
a 157 187 1
a 187 157 1
a 157 158 4
a 158 157 4
a 158 188 2
a 188 158 2
a 158 159 5
a 159 158 5
a 159 189 7
a 189 159 7
a 159 160 7
a 160 159 7
a 160 190 6
a 190 160 6
a 160 161 9
a 161 160 9
a 161 191 5
a 191 161 5
a 161 162 9
a 162 161 9
a 162 192 1
a 192 162 1
a 162 163 1
a 163 162 1
a 163 193 5
a 193 163 5
a 163 164 3
a 164 163 3
a 164 194 8
a 194 164 8
a 164 165 2
a 165 164 2
a 165 195 6
a 195 165 6
a 165 166 4
a 166 165 4
a 166 196 1
a 196 166 1
a 166 167 4
a 167 166 4
a 167 197 10
a 197 167 10
a 167 168 4
a 168 167 4
a 168 169 4
a 169 168 4
a 169 199 8
a 199 169 8
a 169 170 3
a 170 169 3
a 170 200 5
a 200 170 5
a 170 171 1
a 171 170 1
a 171 172 3
a 172 171 3
a 172 202 4
a 202 172 4
a 172 173 10
a 173 172 10
a 173 203 4
a 203 173 4
a 173 174 7
a 174 173 7
a 174 204 6
a 204 174 6
a 174 175 5
a 175 174 5
a 175 205 4
a 205 175 4
a 175 176 5
a 176 175 5
a 176 206 7
a 206 176 7
a 176 177 4
a 177 176 4
a 177 207 6
a 207 177 6
a 177 178 5
a 178 177 5
a 178 208 1
a 208 178 1
a 178 179 3
a 179 178 3
a 179 209 1
a 209 179 1
a 179 180 10
a 180 179 10
a 180 210 2
a 210 180 2
a 181 211 7
a 211 181 7
a 181 182 9
a 182 181 9
a 182 212 4
a 212 182 4
a 182 183 6
a 183 182 6
a 183 213 6
a 213 183 6
a 183 184 3
a 184 183 3
a 184 214 6
a 214 184 6
a 184 185 9
a 185 184 9
a 185 215 10
a 215 185 10
a 185 186 10
a 186 185 10
a 186 216 4
a 216 186 4
a 186 187 7
a 187 186 7
a 187 188 3
a 188 187 3
a 188 218 2
a 218 188 2
a 188 189 6
a 189 188 6
a 189 219 1
a 219 189 1
a 189 190 6
a 190 189 6
a 190 220 6
a 220 190 6
a 190 191 2
a 191 190 2
a 191 221 3
a 221 191 3
a 191 192 7
a 192 191 7
a 192 222 5
a 222 192 5
a 192 193 2
a 193 192 2
a 193 223 8
a 223 193 8
a 193 194 6
a 194 193 6
a 194 224 3
a 224 194 3
a 194 195 4
a 195 194 4
a 195 225 1
a 225 195 1
a 195 196 7
a 196 195 7
a 196 226 7
a 226 196 7
a 196 197 9
a 197 196 9
a 197 227 8
a 227 197 8
a 199 229 3
a 229 199 3
a 199 200 7
a 200 199 7
a 200 230 4
a 230 200 4
a 202 232 10
a 232 202 10
a 202 203 1
a 203 202 1
a 203 233 10
a 233 203 10
a 203 204 5
a 204 203 5
a 204 234 1
a 234 204 1
a 204 205 4
a 205 204 4
a 205 235 9
a 235 205 9
a 205 206 7
a 206 205 7
a 206 236 3
a 236 206 3
a 206 207 10
a 207 206 10
a 207 237 2
a 237 207 2
a 207 208 1
a 208 207 1
a 208 238 3
a 238 208 3
a 208 209 8
a 209 208 8
a 209 239 1
a 239 209 1
a 209 210 1
a 210 209 1
a 210 240 1
a 240 210 1
a 211 241 1
a 241 211 1
a 211 212 5
a 212 211 5
a 212 242 10
a 242 212 10
a 212 213 1
a 213 212 1
a 213 243 8
a 243 213 8
a 213 214 8
a 214 213 8
a 214 244 9
a 244 214 9
a 214 215 9
a 215 214 9
a 215 245 2
a 245 215 2
a 215 216 7
a 216 215 7
a 216 246 7
a 246 216 7
a 218 248 6
a 248 218 6
a 218 219 10
a 219 218 10
a 219 249 6
a 249 219 6
a 219 220 8
a 220 219 8
a 220 250 8
a 250 220 8
a 220 221 8
a 221 220 8
a 221 251 4
a 251 221 4
a 221 222 5
a 222 221 5
a 222 252 3
a 252 222 3
a 222 223 10
a 223 222 10
a 223 253 4
a 253 223 4
a 223 224 4
a 224 223 4
a 224 254 1
a 254 224 1
a 224 225 5
a 225 224 5
a 225 255 3
a 255 225 3
a 225 226 7
a 226 225 7
a 226 256 10
a 256 226 10
a 226 227 9
a 227 226 9
a 227 257 2
a 257 227 2
a 227 228 8
a 228 227 8
a 228 258 10
a 258 228 10
a 228 229 8
a 229 228 8
a 229 259 1
a 259 229 1
a 229 230 5
a 230 229 5
a 230 260 7
a 260 230 7
a 230 231 2
a 231 230 2
a 231 261 5
a 261 231 5
a 231 232 10
a 232 231 10
a 232 262 3
a 262 232 3
a 232 233 5
a 233 232 5
a 233 263 3
a 263 233 3
a 233 234 5
a 234 233 5
a 234 264 7
a 264 234 7
a 234 235 5
a 235 234 5
a 235 265 8
a 265 235 8
a 235 236 8
a 236 235 8
a 236 266 9
a 266 236 9
a 236 237 5
a 237 236 5
a 237 267 4
a 267 237 4
a 237 238 8
a 238 237 8
a 238 268 9
a 268 238 9
a 238 239 1
a 239 238 1
a 239 269 8
a 269 239 8
a 239 240 3
a 240 239 3
a 240 270 8
a 270 240 8
a 241 271 5
a 271 241 5
a 241 242 7
a 242 241 7
a 242 272 7
a 272 242 7
a 242 243 3
a 243 242 3
a 243 273 2
a 273 243 2
a 243 244 2
a 244 243 2
a 244 274 6
a 274 244 6
a 244 245 9
a 245 244 9
a 245 246 10
a 246 245 10
a 246 276 9
a 276 246 9
a 246 247 3
a 247 246 3
a 247 277 3
a 277 247 3
a 247 248 9
a 248 247 9
a 248 278 9
a 278 248 9
a 248 249 8
a 249 248 8
a 249 250 2
a 250 249 2
a 250 280 8
a 280 250 8
a 250 251 7
a 251 250 7
a 251 281 9
a 281 251 9
a 251 252 5
a 252 251 5
a 252 282 6
a 282 252 6
a 252 253 10
a 253 252 10
a 253 283 7
a 283 253 7
a 253 254 2
a 254 253 2
a 254 255 9
a 255 254 9
a 255 285 6
a 285 255 6
a 255 256 6
a 256 255 6
a 256 286 6
a 286 256 6
a 256 257 7
a 257 256 7
a 257 287 2
a 287 257 2
a 257 258 2
a 258 257 2
a 258 259 10
a 259 258 10
a 259 289 7
a 289 259 7
a 259 260 6
a 260 259 6
a 260 261 10
a 261 260 10
a 261 291 6
a 291 261 6
a 261 262 3
a 262 261 3
a 262 292 9
a 292 262 9
a 262 263 7
a 263 262 7
a 263 293 7
a 293 263 7
a 263 264 7
a 264 263 7
a 264 294 7
a 294 264 7
a 264 265 10
a 265 264 10
a 265 295 5
a 295 265 5
a 265 266 10
a 266 265 10
a 266 296 3
a 296 266 3
a 266 267 8
a 267 266 8
a 267 297 5
a 297 267 5
a 267 268 6
a 268 267 6
a 268 298 10
a 298 268 10
a 268 269 9
a 269 268 9
a 269 299 3
a 299 269 3
a 269 270 3
a 270 269 3
a 270 300 6
a 300 270 6
a 271 301 4
a 301 271 4
a 271 272 3
a 272 271 3
a 272 302 2
a 302 272 2
a 272 273 1
a 273 272 1
a 273 303 7
a 303 273 7
a 273 274 10
a 274 273 10
a 274 304 10
a 304 274 10
a 276 306 7
a 306 276 7
a 276 277 4
a 277 276 4
a 277 307 6
a 307 277 6
a 277 278 1
a 278 277 1
a 278 308 8
a 308 278 8
a 280 310 2
a 310 280 2
a 280 281 7
a 281 280 7
a 281 311 3
a 311 281 3
a 281 282 10
a 282 281 10
a 282 312 10
a 312 282 10
a 282 283 3
a 283 282 3
a 283 313 5
a 313 283 5
a 285 315 3
a 315 285 3
a 285 286 5
a 286 285 5
a 286 316 1
a 316 286 1
a 286 287 8
a 287 286 8
a 287 317 7
a 317 287 7
a 289 319 3
a 319 289 3
a 291 321 4
a 321 291 4
a 291 292 6
a 292 291 6
a 292 322 1
a 322 292 1
a 292 293 3
a 293 292 3
a 293 323 5
a 323 293 5
a 293 294 7
a 294 293 7
a 294 324 4
a 324 294 4
a 294 295 8
a 295 294 8
a 295 325 8
a 325 295 8
a 295 296 6
a 296 295 6
a 296 326 9
a 326 296 9
a 296 297 5
a 297 296 5
a 297 327 7
a 327 297 7
a 297 298 8
a 298 297 8
a 298 328 3
a 328 298 3
a 298 299 8
a 299 298 8
a 299 329 6
a 329 299 6
a 299 300 2
a 300 299 2
a 300 330 10
a 330 300 10
a 301 331 4
a 331 301 4
a 301 302 4
a 302 301 4
a 302 332 8
a 332 302 8
a 302 303 5
a 303 302 5
a 303 333 3
a 333 303 3
a 303 304 1
a 304 303 1
a 304 305 6
a 305 304 6
a 305 335 1
a 335 305 1
a 305 306 10
a 306 305 10
a 306 336 9
a 336 306 9
a 306 307 1
a 307 306 1
a 307 337 4
a 337 307 4
a 307 308 2
a 308 307 2
a 308 338 8
a 338 308 8
a 308 309 2
a 309 308 2
a 309 339 10
a 339 309 10
a 309 310 6
a 310 309 6
a 310 340 5
a 340 310 5
a 310 311 2
a 311 310 2
a 311 341 2
a 341 311 2
a 311 312 6
a 312 311 6
a 312 342 2
a 342 312 2
a 312 313 3
a 313 312 3
a 313 343 2
a 343 313 2
a 313 314 6
a 314 313 6
a 314 344 5
a 344 314 5
a 314 315 1
a 315 314 1
a 315 345 5
a 345 315 5
a 315 316 7
a 316 315 7
a 316 346 7
a 346 316 7
a 316 317 4
a 317 316 4
a 317 347 3
a 347 317 3
a 317 318 6
a 318 317 6
a 318 348 3
a 348 318 3
a 318 319 8
a 319 318 8
a 319 349 4
a 349 319 4
a 319 320 3
a 320 319 3
a 320 350 3
a 350 320 3
a 320 321 7
a 321 320 7
a 321 351 3
a 351 321 3
a 321 322 6
a 322 321 6
a 322 352 9
a 352 322 9
a 322 323 2
a 323 322 2
a 323 353 10
a 353 323 10
a 323 324 3
a 324 323 3
a 324 354 7
a 354 324 7
a 324 325 5
a 325 324 5
a 325 326 5
a 326 325 5
a 326 327 6
a 327 326 6
a 327 357 10
a 357 327 10
a 327 328 7
a 328 327 7
a 328 358 2
a 358 328 2
a 328 329 9
a 329 328 9
a 329 359 6
a 359 329 6
a 329 330 7
a 330 329 7
a 330 360 3
a 360 330 3
a 331 361 4
a 361 331 4
a 331 332 7
a 332 331 7
a 332 362 3
a 362 332 3
a 332 333 4
a 333 332 4
a 333 363 9
a 363 333 9
a 335 365 2
a 365 335 2
a 335 336 7
a 336 335 7
a 336 366 9
a 366 336 9
a 336 337 4
a 337 336 4
a 337 367 10
a 367 337 10
a 337 338 1
a 338 337 1
a 338 368 5
a 368 338 5
a 338 339 7
a 339 338 7
a 339 340 1
a 340 339 1
a 340 370 4
a 370 340 4
a 340 341 3
a 341 340 3
a 341 371 8
a 371 341 8
a 341 342 1
a 342 341 1
a 342 372 9
a 372 342 9
a 342 343 1
a 343 342 1
a 343 373 7
a 373 343 7
a 343 344 8
a 344 343 8
a 344 374 9
a 374 344 9
a 344 345 4
a 345 344 4
a 345 375 6
a 375 345 6
a 345 346 7
a 346 345 7
a 346 376 8
a 376 346 8
a 346 347 2
a 347 346 2
a 347 377 7
a 377 347 7
a 347 348 1
a 348 347 1
a 348 378 5
a 378 348 5
a 348 349 5
a 349 348 5
a 349 379 7
a 379 349 7
a 349 350 4
a 350 349 4
a 350 380 2
a 380 350 2
a 350 351 4
a 351 350 4
a 351 381 9
a 381 351 9
a 351 352 9
a 352 351 9
a 352 382 9
a 382 352 9
a 352 353 9
a 353 352 9
a 353 383 7
a 383 353 7
a 353 354 7
a 354 353 7
a 354 384 5
a 384 354 5
a 357 387 8
a 387 357 8
a 357 358 1
a 358 357 1
a 358 388 1
a 388 358 1
a 358 359 6
a 359 358 6
a 359 389 8
a 389 359 8
a 359 360 9
a 360 359 9
a 360 390 8
a 390 360 8
a 361 391 5
a 391 361 5
a 361 362 7
a 362 361 7
a 362 392 6
a 392 362 6
a 362 363 10
a 363 362 10
a 363 393 5
a 393 363 5
a 363 364 8
a 364 363 8
a 364 394 9
a 394 364 9
a 364 365 5
a 365 364 5
a 365 366 1
a 366 365 1
a 366 396 4
a 396 366 4
a 366 367 8
a 367 366 8
a 367 397 9
a 397 367 9
a 367 368 1
a 368 367 1
a 368 398 2
a 398 368 2
a 370 400 9
a 400 370 9
a 370 371 4
a 371 370 4
a 371 401 10
a 401 371 10
a 371 372 5
a 372 371 5
a 372 402 1
a 402 372 1
a 372 373 1
a 373 372 1
a 373 403 10
a 403 373 10
a 373 374 8
a 374 373 8
a 374 404 8
a 404 374 8
a 374 375 8
a 375 374 8
a 375 405 3
a 405 375 3
a 375 376 8
a 376 375 8
a 376 406 1
a 406 376 1
a 376 377 10
a 377 376 10
a 377 407 9
a 407 377 9
a 377 378 5
a 378 377 5
a 378 408 2
a 408 378 2
a 378 379 9
a 379 378 9
a 379 409 2
a 409 379 2
a 379 380 1
a 380 379 1
a 380 410 2
a 410 380 2
a 380 381 5
a 381 380 5
a 381 411 5
a 411 381 5
a 381 382 1
a 382 381 1
a 382 412 5
a 412 382 5
a 382 383 5
a 383 382 5
a 383 413 3
a 413 383 3
a 383 384 4
a 384 383 4
a 384 414 6
a 414 384 6
a 384 385 6
a 385 384 6
a 385 415 7
a 415 385 7
a 385 386 7
a 386 385 7
a 386 416 7
a 416 386 7
a 386 387 6
a 387 386 6
a 387 417 6
a 417 387 6
a 387 388 8
a 388 387 8
a 388 418 2
a 418 388 2
a 388 389 3
a 389 388 3
a 389 419 10
a 419 389 10
a 389 390 2
a 390 389 2
a 390 420 1
a 420 390 1
a 391 421 4
a 421 391 4
a 391 392 4
a 392 391 4
a 392 422 8
a 422 392 8
a 392 393 6
a 393 392 6
a 393 423 7
a 423 393 7
a 393 394 8
a 394 393 8
a 394 424 7
a 424 394 7
a 396 426 3
a 426 396 3
a 396 397 5
a 397 396 5
a 397 427 8
a 427 397 8
a 397 398 5
a 398 397 5
a 398 428 3
a 428 398 3
a 400 430 5
a 430 400 5
a 400 401 1
a 401 400 1
a 401 431 1
a 431 401 1
a 401 402 5
a 402 401 5
a 402 432 2
a 432 402 2
a 402 403 9
a 403 402 9
a 403 404 4
a 404 403 4
a 404 434 5
a 434 404 5
a 404 405 5
a 405 404 5
a 405 435 8
a 435 405 8
a 405 406 2
a 406 405 2
a 406 436 2
a 436 406 2
a 406 407 1
a 407 406 1
a 407 437 6
a 437 407 6
a 407 408 1
a 408 407 1
a 408 438 5
a 438 408 5
a 408 409 2
a 409 408 2
a 409 439 1
a 439 409 1
a 409 410 3
a 410 409 3
a 410 440 4
a 440 410 4
a 410 411 4
a 411 410 4
a 411 441 2
a 441 411 2
a 411 412 7
a 412 411 7
a 412 442 8
a 442 412 8
a 412 413 10
a 413 412 10
a 413 443 3
a 443 413 3
a 413 414 1
a 414 413 1
a 414 444 7
a 444 414 7
a 414 415 7
a 415 414 7
a 415 445 5
a 445 415 5
a 415 416 10
a 416 415 10
a 416 446 7
a 446 416 7
a 416 417 6
a 417 416 6
a 417 447 3
a 447 417 3
a 417 418 8
a 418 417 8
a 418 448 8
a 448 418 8
a 418 419 8
a 419 418 8
a 419 449 5
a 449 419 5
a 419 420 5
a 420 419 5
a 420 450 4
a 450 420 4
a 421 451 9
a 451 421 9
a 421 422 5
a 422 421 5
a 422 452 6
a 452 422 6
a 422 423 9
a 423 422 9
a 423 453 10
a 453 423 10
a 423 424 10
a 424 423 10
a 424 454 2
a 454 424 2
a 424 425 7
a 425 424 7
a 425 455 8
a 455 425 8
a 425 426 2
a 426 425 2
a 426 456 6
a 456 426 6
a 426 427 8
a 427 426 8
a 427 457 7
a 457 427 7
a 427 428 9
a 428 427 9
a 428 458 9
a 458 428 9
a 428 429 1
a 429 428 1
a 429 459 2
a 459 429 2
a 429 430 1
a 430 429 1
a 430 460 10
a 460 430 10
a 430 431 2
a 431 430 2
a 431 461 5
a 461 431 5
a 431 432 6
a 432 431 6
a 432 462 2
a 462 432 2
a 434 464 2
a 464 434 2
a 434 435 8
a 435 434 8
a 435 465 8
a 465 435 8
a 435 436 8
a 436 435 8
a 436 466 8
a 466 436 8
a 436 437 1
a 437 436 1
a 437 467 10
a 467 437 10
a 437 438 3
a 438 437 3
a 438 468 10
a 468 438 10
a 438 439 1
a 439 438 1
a 439 469 1
a 469 439 1
a 439 440 6
a 440 439 6
a 440 470 3
a 470 440 3
a 440 441 5
a 441 440 5
a 441 471 3
a 471 441 3
a 441 442 5
a 442 441 5
a 442 472 8
a 472 442 8
a 442 443 5
a 443 442 5
a 443 473 8
a 473 443 8
a 443 444 7
a 444 443 7
a 444 474 5
a 474 444 5
a 444 445 1
a 445 444 1
a 445 475 3
a 475 445 3
a 445 446 6
a 446 445 6
a 446 476 7
a 476 446 7
a 446 447 1
a 447 446 1
a 447 477 6
a 477 447 6
a 447 448 2
a 448 447 2
a 448 478 8
a 478 448 8
a 448 449 2
a 449 448 2
a 449 479 7
a 479 449 7
a 449 450 7
a 450 449 7
a 450 480 8
a 480 450 8
a 451 481 3
a 481 451 3
a 451 452 4
a 452 451 4
a 452 482 5
a 482 452 5
a 452 453 1
a 453 452 1
a 453 483 4
a 483 453 4
a 453 454 2
a 454 453 2
a 454 484 8
a 484 454 8
a 454 455 5
a 455 454 5
a 455 485 7
a 485 455 7
a 455 456 7
a 456 455 7
a 456 486 9
a 486 456 9
a 456 457 4
a 457 456 4
a 457 487 8
a 487 457 8
a 457 458 3
a 458 457 3
a 458 488 8
a 488 458 8
a 458 459 5
a 459 458 5
a 459 489 5
a 489 459 5
a 459 460 8
a 460 459 8
a 460 490 3
a 490 460 3
a 460 461 9
a 461 460 9
a 461 491 6
a 491 461 6
a 461 462 10
a 462 461 10
a 462 492 9
a 492 462 9
a 464 494 9
a 494 464 9
a 464 465 6
a 465 464 6
a 465 495 7
a 495 465 7
a 465 466 7
a 466 465 7
a 466 496 10
a 496 466 10
a 466 467 8
a 467 466 8
a 467 497 10
a 497 467 10
a 467 468 6
a 468 467 6
a 468 498 1
a 498 468 1
a 468 469 2
a 469 468 2
a 469 499 5
a 499 469 5
a 469 470 8
a 470 469 8
a 470 500 3
a 500 470 3
a 470 471 6
a 471 470 6
a 471 472 7
a 472 471 7
a 472 502 6
a 502 472 6
a 472 473 9
a 473 472 9
a 473 503 10
a 503 473 10
a 473 474 1
a 474 473 1
a 474 504 2
a 504 474 2
a 474 475 2
a 475 474 2
a 475 505 2
a 505 475 2
a 475 476 5
a 476 475 5
a 476 506 9
a 506 476 9
a 476 477 9
a 477 476 9
a 477 507 4
a 507 477 4
a 477 478 3
a 478 477 3
a 478 508 9
a 508 478 9
a 478 479 6
a 479 478 6
a 479 480 6
a 480 479 6
a 480 510 1
a 510 480 1
a 481 511 10
a 511 481 10
a 481 482 6
a 482 481 6
a 482 512 10
a 512 482 10
a 482 483 10
a 483 482 10
a 483 513 8
a 513 483 8
a 483 484 2
a 484 483 2
a 484 514 3
a 514 484 3
a 484 485 4
a 485 484 4
a 485 515 8
a 515 485 8
a 485 486 6
a 486 485 6
a 486 487 6
a 487 486 6
a 487 517 9
a 517 487 9
a 487 488 4
a 488 487 4
a 488 518 7
a 518 488 7
a 488 489 3
a 489 488 3
a 489 519 9
a 519 489 9
a 489 490 9
a 490 489 9
a 490 520 2
a 520 490 2
a 490 491 6
a 491 490 6
a 491 521 2
a 521 491 2
a 491 492 3
a 492 491 3
a 492 522 3
a 522 492 3
a 492 493 4
a 493 492 4
a 493 523 2
a 523 493 2
a 493 494 2
a 494 493 2
a 494 524 10
a 524 494 10
a 494 495 4
a 495 494 4
a 495 525 1
a 525 495 1
a 495 496 1
a 496 495 1
a 496 526 7
a 526 496 7
a 496 497 10
a 497 496 10
a 497 527 6
a 527 497 6
a 497 498 9
a 498 497 9
a 498 528 5
a 528 498 5
a 498 499 8
a 499 498 8
a 499 529 2
a 529 499 2
a 499 500 4
a 500 499 4
a 500 530 7
a 530 500 7
a 502 532 8
a 532 502 8
a 502 503 2
a 503 502 2
a 503 533 8
a 533 503 8
a 503 504 1
a 504 503 1
a 504 534 2
a 534 504 2
a 504 505 7
a 505 504 7
a 505 535 8
a 535 505 8
a 505 506 5
a 506 505 5
a 506 536 9
a 536 506 9
a 506 507 4
a 507 506 4
a 507 537 6
a 537 507 6
a 507 508 2
a 508 507 2
a 508 538 7
a 538 508 7
a 510 540 3
a 540 510 3
a 511 541 8
a 541 511 8
a 511 512 6
a 512 511 6
a 512 542 5
a 542 512 5
a 512 513 1
a 513 512 1
a 513 543 7
a 543 513 7
a 513 514 5
a 514 513 5
a 514 544 8
a 544 514 8
a 514 515 2
a 515 514 2
a 515 545 7
a 545 515 7
a 517 547 5
a 547 517 5
a 517 518 1
a 518 517 1
a 518 548 2
a 548 518 2
a 518 519 3
a 519 518 3
a 519 549 7
a 549 519 7
a 519 520 5
a 520 519 5
a 520 550 5
a 550 520 5
a 520 521 1
a 521 520 1
a 521 551 9
a 551 521 9
a 521 522 4
a 522 521 4
a 522 552 7
a 552 522 7
a 522 523 6
a 523 522 6
a 523 553 6
a 553 523 6
a 523 524 6
a 524 523 6
a 524 554 4
a 554 524 4
a 524 525 10
a 525 524 10
a 525 555 6
a 555 525 6
a 525 526 5
a 526 525 5
a 526 556 10
a 556 526 10
a 526 527 8
a 527 526 8
a 527 557 7
a 557 527 7
a 527 528 8
a 528 527 8
a 528 558 8
a 558 528 8
a 528 529 9
a 529 528 9
a 529 559 4
a 559 529 4
a 529 530 5
a 530 529 5
a 530 560 9
a 560 530 9
a 530 531 9
a 531 530 9
a 531 561 8
a 561 531 8
a 531 532 7
a 532 531 7
a 532 562 1
a 562 532 1
a 532 533 10
a 533 532 10
a 533 563 9
a 563 533 9
a 533 534 5
a 534 533 5
a 534 564 5
a 564 534 5
a 534 535 7
a 535 534 7
a 535 565 1
a 565 535 1
a 535 536 7
a 536 535 7
a 536 566 1
a 566 536 1
a 536 537 6
a 537 536 6
a 537 567 6
a 567 537 6
a 537 538 9
a 538 537 9
a 538 568 9
a 568 538 9
a 538 539 4
a 539 538 4
a 539 569 2
a 569 539 2
a 539 540 4
a 540 539 4
a 540 570 8
a 570 540 8
a 541 571 3
a 571 541 3
a 541 542 8
a 542 541 8
a 542 572 3
a 572 542 3
a 542 543 3
a 543 542 3
a 543 573 6
a 573 543 6
a 543 544 3
a 544 543 3
a 544 574 7
a 574 544 7
a 544 545 6
a 545 544 6
a 545 575 7
a 575 545 7
a 545 546 8
a 546 545 8
a 546 576 8
a 576 546 8
a 546 547 4
a 547 546 4
a 547 577 4
a 577 547 4
a 547 548 2
a 548 547 2
a 548 578 6
a 578 548 6
a 548 549 4
a 549 548 4
a 549 579 2
a 579 549 2
a 549 550 4
a 550 549 4
a 550 580 5
a 580 550 5
a 550 551 5
a 551 550 5
a 551 581 9
a 581 551 9
a 551 552 5
a 552 551 5
a 552 582 6
a 582 552 6
a 552 553 6
a 553 552 6
a 553 583 4
a 583 553 4
a 553 554 1
a 554 553 1
a 554 584 7
a 584 554 7
a 554 555 8
a 555 554 8
a 555 585 3
a 585 555 3
a 555 556 1
a 556 555 1
a 556 586 7
a 586 556 7
a 556 557 4
a 557 556 4
a 557 587 9
a 587 557 9
a 557 558 3
a 558 557 3
a 558 588 7
a 588 558 7
a 558 559 2
a 559 558 2
a 559 589 2
a 589 559 2
a 559 560 3
a 560 559 3
a 560 590 7
a 590 560 7
a 560 561 2
a 561 560 2
a 561 591 6
a 591 561 6
a 561 562 8
a 562 561 8
a 562 592 10
a 592 562 10
a 562 563 2
a 563 562 2
a 563 593 7
a 593 563 7
a 563 564 4
a 564 563 4
a 564 594 1
a 594 564 1
a 564 565 5
a 565 564 5
a 565 595 8
a 595 565 8
a 565 566 10
a 566 565 10
a 566 596 6
a 596 566 6
a 566 567 1
a 567 566 1
a 567 597 5
a 597 567 5
a 567 568 7
a 568 567 7
a 568 598 10
a 598 568 10
a 568 569 8
a 569 568 8
a 569 599 7
a 599 569 7
a 569 570 4
a 570 569 4
a 570 600 10
a 600 570 10
a 571 601 2
a 601 571 2
a 571 572 5
a 572 571 5
a 572 602 7
a 602 572 7
a 572 573 9
a 573 572 9
a 573 603 5
a 603 573 5
a 573 574 7
a 574 573 7
a 574 604 3
a 604 574 3
a 574 575 4
a 575 574 4
a 575 605 1
a 605 575 1
a 575 576 2
a 576 575 2
a 576 606 5
a 606 576 5
a 576 577 10
a 577 576 10
a 577 607 9
a 607 577 9
a 577 578 9
a 578 577 9
a 578 608 10
a 608 578 10
a 578 579 5
a 579 578 5
a 579 609 10
a 609 579 10
a 579 580 1
a 580 579 1
a 580 610 5
a 610 580 5
a 580 581 1
a 581 580 1
a 581 611 8
a 611 581 8
a 581 582 9
a 582 581 9
a 582 612 6
a 612 582 6
a 582 583 10
a 583 582 10
a 583 613 1
a 613 583 1
a 583 584 1
a 584 583 1
a 584 614 4
a 614 584 4
a 584 585 9
a 585 584 9
a 585 615 1
a 615 585 1
a 585 586 1
a 586 585 1
a 586 616 1
a 616 586 1
a 586 587 10
a 587 586 10
a 587 588 9
a 588 587 9
a 588 618 2
a 618 588 2
a 588 589 6
a 589 588 6
a 589 619 1
a 619 589 1
a 589 590 9
a 590 589 9
a 590 620 1
a 620 590 1
a 590 591 10
a 591 590 10
a 591 621 8
a 621 591 8
a 591 592 10
a 592 591 10
a 592 593 5
a 593 592 5
a 593 623 2
a 623 593 2
a 593 594 9
a 594 593 9
a 594 624 9
a 624 594 9
a 594 595 1
a 595 594 1
a 595 625 1
a 625 595 1
a 595 596 5
a 596 595 5
a 596 626 2
a 626 596 2
a 596 597 8
a 597 596 8
a 597 627 10
a 627 597 10
a 597 598 8
a 598 597 8
a 598 599 4
a 599 598 4
a 599 629 1
a 629 599 1
a 599 600 2
a 600 599 2
a 600 630 6
a 630 600 6
a 601 631 2
a 631 601 2
a 601 602 4
a 602 601 4
a 602 632 4
a 632 602 4
a 602 603 10
a 603 602 10
a 603 633 7
a 633 603 7
a 603 604 7
a 604 603 7
a 604 634 9
a 634 604 9
a 604 605 8
a 605 604 8
a 605 635 9
a 635 605 9
a 605 606 4
a 606 605 4
a 606 607 1
a 607 606 1
a 607 637 7
a 637 607 7
a 607 608 1
a 608 607 1
a 608 638 7
a 638 608 7
a 608 609 6
a 609 608 6
a 609 639 2
a 639 609 2
a 609 610 9
a 610 609 9
a 610 640 5
a 640 610 5
a 610 611 3
a 611 610 3
a 611 641 6
a 641 611 6
a 611 612 1
a 612 611 1
a 612 642 9
a 642 612 9
a 612 613 2
a 613 612 2
a 613 643 1
a 643 613 1
a 613 614 7
a 614 613 7
a 614 644 8
a 644 614 8
a 614 615 9
a 615 614 9
a 615 645 6
a 645 615 6
a 615 616 9
a 616 615 9
a 616 646 8
a 646 616 8
a 618 648 5
a 648 618 5
a 618 619 8
a 619 618 8
a 619 649 10
a 649 619 10
a 619 620 1
a 620 619 1
a 620 650 8
a 650 620 8
a 620 621 2
a 621 620 2
a 621 651 5
a 651 621 5
a 623 653 5
a 653 623 5
a 623 624 1
a 624 623 1
a 624 654 7
a 654 624 7
a 624 625 5
a 625 624 5
a 625 655 8
a 655 625 8
a 625 626 10
a 626 625 10
a 626 656 10
a 656 626 10
a 626 627 10
a 627 626 10
a 627 657 3
a 657 627 3
a 629 659 1
a 659 629 1
a 629 630 5
a 630 629 5
a 630 660 4
a 660 630 4
a 631 661 4
a 661 631 4
a 631 632 1
a 632 631 1
a 632 662 9
a 662 632 9
a 632 633 3
a 633 632 3
a 633 663 8
a 663 633 8
a 633 634 6
a 634 633 6
a 634 664 9
a 664 634 9
a 634 635 3
a 635 634 3
a 635 665 6
a 665 635 6
a 637 667 10
a 667 637 10
a 637 638 7
a 638 637 7
a 638 668 1
a 668 638 1
a 638 639 8
a 639 638 8
a 639 669 5
a 669 639 5
a 639 640 4
a 640 639 4
a 640 670 1
a 670 640 1
a 640 641 3
a 641 640 3
a 641 671 3
a 671 641 3
a 641 642 5
a 642 641 5
a 642 672 6
a 672 642 6
a 642 643 9
a 643 642 9
a 643 673 7
a 673 643 7
a 643 644 6
a 644 643 6
a 644 674 3
a 674 644 3
a 644 645 4
a 645 644 4
a 645 675 8
a 675 645 8
a 645 646 5
a 646 645 5
a 646 676 3
a 676 646 3
a 646 647 7
a 647 646 7
a 647 677 4
a 677 647 4
a 647 648 5
a 648 647 5
a 648 678 6
a 678 648 6
a 648 649 4
a 649 648 4
a 649 679 10
a 679 649 10
a 649 650 5
a 650 649 5
a 650 680 1
a 680 650 1
a 650 651 6
a 651 650 6
a 651 681 7
a 681 651 7
a 651 652 2
a 652 651 2
a 652 682 8
a 682 652 8
a 652 653 6
a 653 652 6
a 653 683 7
a 683 653 7
a 653 654 3
a 654 653 3
a 654 655 5
a 655 654 5
a 655 685 7
a 685 655 7
a 655 656 3
a 656 655 3
a 656 686 9
a 686 656 9
a 656 657 1
a 657 656 1
a 657 687 6
a 687 657 6
a 657 658 6
a 658 657 6
a 658 688 4
a 688 658 4
a 658 659 9
a 659 658 9
a 659 689 7
a 689 659 7
a 659 660 10
a 660 659 10
a 660 690 8
a 690 660 8
a 661 691 1
a 691 661 1
a 661 662 4
a 662 661 4
a 662 692 2
a 692 662 2
a 662 663 7
a 663 662 7
a 663 693 5
a 693 663 5
a 663 664 7
a 664 663 7
a 664 694 6
a 694 664 6
a 664 665 1
a 665 664 1
a 665 695 2
a 695 665 2
a 665 666 10
a 666 665 10
a 666 696 6
a 696 666 6
a 666 667 6
a 667 666 6
a 667 697 10
a 697 667 10
a 667 668 3
a 668 667 3
a 668 698 8
a 698 668 8
a 668 669 7
a 669 668 7
a 669 699 8
a 699 669 8
a 669 670 2
a 670 669 2
a 670 671 2
a 671 670 2
a 671 701 8
a 701 671 8
a 671 672 3
a 672 671 3
a 672 702 7
a 702 672 7
a 672 673 3
a 673 672 3
a 673 703 2
a 703 673 2
a 673 674 3
a 674 673 3
a 674 704 10
a 704 674 10
a 674 675 3
a 675 674 3
a 675 705 3
a 705 675 3
a 675 676 6
a 676 675 6
a 676 706 10
a 706 676 10
a 676 677 10
a 677 676 10
a 677 707 4
a 707 677 4
a 677 678 9
a 678 677 9
a 678 708 5
a 708 678 5
a 678 679 1
a 679 678 1
a 679 709 3
a 709 679 3
a 679 680 1
a 680 679 1
a 680 710 1
a 710 680 1
a 680 681 7
a 681 680 7
a 681 711 4
a 711 681 4
a 681 682 6
a 682 681 6
a 682 712 10
a 712 682 10
a 682 683 2
a 683 682 2
a 683 713 4
a 713 683 4
a 685 715 10
a 715 685 10
a 685 686 9
a 686 685 9
a 686 687 8
a 687 686 8
a 687 717 5
a 717 687 5
a 687 688 7
a 688 687 7
a 688 718 4
a 718 688 4
a 688 689 1
a 689 688 1
a 689 690 10
a 690 689 10
a 690 720 8
a 720 690 8
a 691 721 4
a 721 691 4
a 691 692 9
a 692 691 9
a 692 722 8
a 722 692 8
a 692 693 1
a 693 692 1
a 693 723 7
a 723 693 7
a 693 694 8
a 694 693 8
a 694 724 4
a 724 694 4
a 694 695 5
a 695 694 5
a 695 725 4
a 725 695 4
a 695 696 4
a 696 695 4
a 696 726 3
a 726 696 3
a 696 697 9
a 697 696 9
a 697 727 8
a 727 697 8
a 697 698 4
a 698 697 4
a 698 699 8
a 699 698 8
a 699 729 9
a 729 699 9
a 701 731 4
a 731 701 4
a 701 702 8
a 702 701 8
a 702 732 9
a 732 702 9
a 702 703 5
a 703 702 5
a 703 733 2
a 733 703 2
a 703 704 6
a 704 703 6
a 704 734 2
a 734 704 2
a 704 705 10
a 705 704 10
a 705 735 5
a 735 705 5
a 705 706 3
a 706 705 3
a 706 707 3
a 707 706 3
a 707 708 3
a 708 707 3
a 708 738 6
a 738 708 6
a 708 709 2
a 709 708 2
a 709 739 3
a 739 709 3
a 709 710 2
a 710 709 2
a 710 740 1
a 740 710 1
a 710 711 5
a 711 710 5
a 711 741 2
a 741 711 2
a 711 712 10
a 712 711 10
a 712 742 8
a 742 712 8
a 712 713 9
a 713 712 9
a 713 743 2
a 743 713 2
a 713 714 3
a 714 713 3
a 714 744 8
a 744 714 8
a 714 715 9
a 715 714 9
a 715 745 5
a 745 715 5
a 717 747 4
a 747 717 4
a 717 718 5
a 718 717 5
a 718 748 9
a 748 718 9
a 720 750 2
a 750 720 2
a 721 751 5
a 751 721 5
a 721 722 5
a 722 721 5
a 722 752 7
a 752 722 7
a 722 723 8
a 723 722 8
a 723 753 5
a 753 723 5
a 723 724 10
a 724 723 10
a 724 754 8
a 754 724 8
a 724 725 1
a 725 724 1
a 725 726 1
a 726 725 1
a 726 756 9
a 756 726 9
a 726 727 9
a 727 726 9
a 727 757 6
a 757 727 6
a 729 759 4
a 759 729 4
a 729 730 5
a 730 729 5
a 730 760 10
a 760 730 10
a 730 731 8
a 731 730 8
a 731 761 10
a 761 731 10
a 731 732 8
a 732 731 8
a 732 762 4
a 762 732 4
a 732 733 8
a 733 732 8
a 733 763 9
a 763 733 9
a 733 734 5
a 734 733 5
a 734 764 4
a 764 734 4
a 734 735 9
a 735 734 9
a 735 765 2
a 765 735 2
a 738 768 6
a 768 738 6
a 738 739 6
a 739 738 6
a 739 769 6
a 769 739 6
a 739 740 3
a 740 739 3
a 740 770 7
a 770 740 7
a 740 741 7
a 741 740 7
a 741 771 3
a 771 741 3
a 741 742 4
a 742 741 4
a 742 743 5
a 743 742 5
a 743 773 2
a 773 743 2
a 743 744 5
a 744 743 5
a 744 774 3
a 774 744 3
a 744 745 10
a 745 744 10
a 745 775 7
a 775 745 7
a 745 746 3
a 746 745 3
a 746 776 3
a 776 746 3
a 746 747 5
a 747 746 5
a 747 777 2
a 777 747 2
a 747 748 2
a 748 747 2
a 748 778 6
a 778 748 6
a 748 749 10
a 749 748 10
a 749 779 6
a 779 749 6
a 749 750 1
a 750 749 1
a 750 780 9
a 780 750 9
a 751 781 4
a 781 751 4
a 751 752 5
a 752 751 5
a 752 782 7
a 782 752 7
a 752 753 8
a 753 752 8
a 753 783 1
a 783 753 1
a 753 754 6
a 754 753 6
a 754 784 4
a 784 754 4
a 756 786 10
a 786 756 10
a 756 757 10
a 757 756 10
a 757 787 6
a 787 757 6
a 757 758 3
a 758 757 3
a 758 788 3
a 788 758 3
a 758 759 6
a 759 758 6
a 759 760 3
a 760 759 3
a 760 790 4
a 790 760 4
a 760 761 3
a 761 760 3
a 761 791 4
a 791 761 4
a 761 762 6
a 762 761 6
a 762 792 5
a 792 762 5
a 762 763 2
a 763 762 2
a 763 764 10
a 764 763 10
a 764 794 9
a 794 764 9
a 764 765 5
a 765 764 5
a 765 795 8
a 795 765 8
a 765 766 5
a 766 765 5
a 766 796 6
a 796 766 6
a 768 769 9
a 769 768 9
a 769 799 4
a 799 769 4
a 769 770 1
a 770 769 1
a 770 800 2
a 800 770 2
a 770 771 7
a 771 770 7
a 771 801 5
a 801 771 5
a 773 803 3
a 803 773 3
a 773 774 3
a 774 773 3
a 774 804 2
a 804 774 2
a 774 775 9
a 775 774 9
a 775 805 10
a 805 775 10
a 775 776 5
a 776 775 5
a 776 806 1
a 806 776 1
a 776 777 3
a 777 776 3
a 777 807 4
a 807 777 4
a 777 778 6
a 778 777 6
a 778 808 5
a 808 778 5
a 778 779 7
a 779 778 7
a 779 809 7
a 809 779 7
a 779 780 6
a 780 779 6
a 780 810 8
a 810 780 8
a 781 811 10
a 811 781 10
a 781 782 9
a 782 781 9
a 782 812 7
a 812 782 7
a 782 783 10
a 783 782 10
a 783 813 5
a 813 783 5
a 783 784 9
a 784 783 9
a 784 814 6
a 814 784 6
a 784 785 7
a 785 784 7
a 785 815 3
a 815 785 3
a 785 786 7
a 786 785 7
a 786 816 10
a 816 786 10
a 786 787 7
a 787 786 7
a 787 817 4
a 817 787 4
a 787 788 10
a 788 787 10
a 788 818 6
a 818 788 6
a 790 820 2
a 820 790 2
a 790 791 1
a 791 790 1
a 791 821 5
a 821 791 5
a 791 792 5
a 792 791 5
a 792 822 1
a 822 792 1
a 794 824 7
a 824 794 7
a 794 795 1
a 795 794 1
a 795 825 7
a 825 795 7
a 795 796 8
a 796 795 8
a 796 826 5
a 826 796 5
a 796 797 4
a 797 796 4
a 797 827 2
a 827 797 2
a 799 829 2
a 829 799 2
a 799 800 6
a 800 799 6
a 800 830 10
a 830 800 10
a 800 801 9
a 801 800 9
a 801 831 4
a 831 801 4
a 801 802 5
a 802 801 5
a 802 832 3
a 832 802 3
a 802 803 5
a 803 802 5
a 803 833 3
a 833 803 3
a 803 804 7
a 804 803 7
a 804 834 2
a 834 804 2
a 804 805 9
a 805 804 9
a 805 835 10
a 835 805 10
a 805 806 8
a 806 805 8
a 806 836 4
a 836 806 4
a 806 807 3
a 807 806 3
a 807 837 10
a 837 807 10
a 807 808 4
a 808 807 4
a 808 838 3
a 838 808 3
a 808 809 3
a 809 808 3
a 809 839 5
a 839 809 5
a 809 810 3
a 810 809 3
a 810 840 9
a 840 810 9
a 811 841 5
a 841 811 5
a 811 812 7
a 812 811 7
a 812 842 5
a 842 812 5
a 812 813 9
a 813 812 9
a 813 814 6
a 814 813 6
a 814 844 2
a 844 814 2
a 814 815 4
a 815 814 4
a 815 845 4
a 845 815 4
a 815 816 2
a 816 815 2
a 816 846 5
a 846 816 5
a 816 817 8
a 817 816 8
a 817 847 1
a 847 817 1
a 817 818 9
a 818 817 9
a 818 848 8
a 848 818 8
a 818 819 8
a 819 818 8
a 819 849 2
a 849 819 2
a 819 820 8
a 820 819 8
a 820 850 9
a 850 820 9
a 820 821 1
a 821 820 1
a 821 851 9
a 851 821 9
a 821 822 7
a 822 821 7
a 822 852 5
a 852 822 5
a 822 823 8
a 823 822 8
a 823 853 7
a 853 823 7
a 823 824 9
a 824 823 9
a 824 854 5
a 854 824 5
a 824 825 5
a 825 824 5
a 825 855 7
a 855 825 7
a 825 826 2
a 826 825 2
a 826 856 8
a 856 826 8
a 826 827 3
a 827 826 3
a 827 857 7
a 857 827 7
a 827 828 4
a 828 827 4
a 828 858 2
a 858 828 2
a 828 829 1
a 829 828 1
a 829 859 1
a 859 829 1
a 829 830 6
a 830 829 6
a 830 860 9
a 860 830 9
a 830 831 7
a 831 830 7
a 831 861 8
a 861 831 8
a 831 832 7
a 832 831 7
a 832 862 8
a 862 832 8
a 832 833 8
a 833 832 8
a 833 863 6
a 863 833 6
a 833 834 8
a 834 833 8
a 834 864 9
a 864 834 9
a 834 835 4
a 835 834 4
a 835 865 5
a 865 835 5
a 835 836 5
a 836 835 5
a 836 866 10
a 866 836 10
a 836 837 4
a 837 836 4
a 837 867 3
a 867 837 3
a 837 838 2
a 838 837 2
a 838 868 5
a 868 838 5
a 838 839 9
a 839 838 9
a 839 869 9
a 869 839 9
a 839 840 7
a 840 839 7
a 840 870 7
a 870 840 7
a 841 871 7
a 871 841 7
a 841 842 1
a 842 841 1
a 842 872 3
a 872 842 3
a 844 874 1
a 874 844 1
a 844 845 2
a 845 844 2
a 845 875 5
a 875 845 5
a 845 846 10
a 846 845 10
a 846 876 7
a 876 846 7
a 846 847 7
a 847 846 7
a 847 877 6
a 877 847 6
a 847 848 4
a 848 847 4
a 848 878 1
a 878 848 1
a 848 849 5
a 849 848 5
a 849 879 6
a 879 849 6
a 849 850 3
a 850 849 3
a 850 880 3
a 880 850 3
a 850 851 5
a 851 850 5
a 851 881 8
a 881 851 8
a 851 852 8
a 852 851 8
a 852 882 8
a 882 852 8
a 852 853 2
a 853 852 2
a 853 883 3
a 883 853 3
a 853 854 5
a 854 853 5
a 854 884 5
a 884 854 5
a 854 855 7
a 855 854 7
a 855 885 4
a 885 855 4
a 855 856 6
a 856 855 6
a 856 857 1
a 857 856 1
a 857 887 1
a 887 857 1
a 857 858 1
a 858 857 1
a 858 888 10
a 888 858 10
a 858 859 6
a 859 858 6
a 859 889 7
a 889 859 7
a 859 860 2
a 860 859 2
a 860 890 2
a 890 860 2
a 860 861 3
a 861 860 3
a 861 891 7
a 891 861 7
a 861 862 1
a 862 861 1
a 862 892 4
a 892 862 4
a 862 863 9
a 863 862 9
a 863 893 6
a 893 863 6
a 863 864 6
a 864 863 6
a 864 894 2
a 894 864 2
a 864 865 2
a 865 864 2
a 865 895 3
a 895 865 3
a 865 866 8
a 866 865 8
a 866 896 1
a 896 866 1
a 866 867 9
a 867 866 9
a 867 897 3
a 897 867 3
a 867 868 8
a 868 867 8
a 868 898 7
a 898 868 7
a 868 869 8
a 869 868 8
a 869 899 7
a 899 869 7
a 869 870 8
a 870 869 8
a 870 900 10
a 900 870 10
a 871 872 6
a 872 871 6
a 872 873 3
a 873 872 3
a 873 874 4
a 874 873 4
a 874 875 2
a 875 874 2
a 875 876 3
a 876 875 3
a 876 877 2
a 877 876 2
a 877 878 5
a 878 877 5
a 878 879 1
a 879 878 1
a 879 880 8
a 880 879 8
a 880 881 3
a 881 880 3
a 881 882 6
a 882 881 6
a 882 883 6
a 883 882 6
a 883 884 10
a 884 883 10
a 884 885 4
a 885 884 4
a 887 888 1
a 888 887 1
a 888 889 1
a 889 888 1
a 889 890 10
a 890 889 10
a 890 891 7
a 891 890 7
a 891 892 2
a 892 891 2
a 892 893 4
a 893 892 4
a 893 894 5
a 894 893 5
a 894 895 3
a 895 894 3
a 895 896 9
a 896 895 9
a 896 897 8
a 897 896 8
a 897 898 7
a 898 897 7
a 898 899 7
a 899 898 7
a 899 900 8
a 900 899 8
